data/CVRPLIB/Vrp-Set-XML100/instances/XML100_2313_09.vrp
NAME : XML100_2313_09
COMMENT : Generated by Queiroga, Sadykov, Uchoa, and Vidal (2021)
TYPE : CVRP
DIMENSION : 101
EDGE_WEIGHT_TYPE : EUC_2D
CAPACITY : 10
NODE_COORD_SECTION
1    500  500 
2    281  861 
3    361  865 
4    548  242 
5    315  840 
6    256  453 
7    291  622 
8    57   945 
9    382  654 
10   192  505 
11   582  217 
12   229  399 
13   269  925 
14   225  749 
15   393  709 
16   654  233 
17   28   985 
18   398  573 
19   461  269 
20   134  725 
21   940  613 
22   647  892 
23   628  58  
24   925  885 
25   716  831 
26   234  884 
27   313  756 
28   815  14  
29   401  157 
30   53   674 
31   692  192 
32   82   796 
33   293  671 
34   266  807 
35   357  198 
36   211  711 
37   508  637 
38   11   890 
39   337  675 
40   392  731 
41   661  199 
42   160  284 
43   190  865 
44   226  83  
45   195  754 
46   51   374 
47   310  299 
48   312  370 
49   877  300 
50   377  305 
51   340  225 
52   702  465 
53   137  944 
54   35   327 
55   231  276 
56   307  733 
57   89   499 
58   489  178 
59   601  193 
60   86   437 
61   861  126 
62   452  690 
63   504  792 
64   155  738 
65   846  392 
66   634  217 
67   311  431 
68   212  696 
69   218  832 
70   438  175 
71   36   839 
72   626  903 
73   187  171 
74   872  141 
75   592  17  
76   417  846 
77   230  722 
78   369  102 
79   397  336 
80   583  290 
81   124  721 
82   628  756 
83   241  737 
84   60   291 
85   585  909 
86   704  88  
87   634  552 
88   573  359 
89   141  664 
90   693  249 
91   357  870 
92   309  636 
93   847  548 
94   167  288 
95   481  286 
96   640  290 
97   305  133 
98   959  168 
99   469  309 
100  954  384 
101  148  575 
DEMAND_SECTION
1    0   
2    1   
3    1   
4    1   
5    1   
6    1   
7    1   
8    1   
9    1   
10   1   
11   1   
12   1   
13   1   
14   1   
15   1   
16   1   
17   1   
18   1   
19   1   
20   1   
21   1   
22   1   
23   1   
24   1   
25   1   
26   1   
27   1   
28   1   
29   1   
30   1   
31   1   
32   1   
33   1   
34   1   
35   1   
36   1   
37   1   
38   1   
39   1   
40   1   
41   1   
42   1   
43   1   
44   1   
45   1   
46   1   
47   1   
48   1   
49   1   
50   1   
51   1   
52   1   
53   1   
54   1   
55   1   
56   1   
57   1   
58   1   
59   1   
60   1   
61   1   
62   1   
63   1   
64   1   
65   1   
66   1   
67   1   
68   1   
69   1   
70   1   
71   1   
72   1   
73   1   
74   1   
75   1   
76   1   
77   1   
78   1   
79   1   
80   1   
81   1   
82   1   
83   1   
84   1   
85   1   
86   1   
87   1   
88   1   
89   1   
90   1   
91   1   
92   1   
93   1   
94   1   
95   1   
96   1   
97   1   
98   1   
99   1   
100  1   
101  1   
DEPOT_SECTION
1
-1
EOF
