data/CVRPLIB/Vrp-Set-XML100/solutions/XML100_2313_09.sol
Route #1: 88 29 31 70 37 16 7 52 42 68
Route #2: 74 22 85 27 60 73 97 48 99 64
Route #3: 86 51 92 20 23 24 21 71 84 81
Route #4: 36 61 14 39 26 55 32 91 6 17
Route #5: 79 10 58 65 15 40 30 89 95 87
Route #6: 66 11 83 53 45 59 56 100 9 5
Route #7: 38 76 82 13 44 63 19 80 35 67
Route #8: 47 46 54 93 41 72 43 96 77 18
Route #9: 8 33 25 12 1 4 90 2 75 62
Route #10: 78 49 50 34 28 69 57 3 94 98
Cost 11967
